c generated by sgen
p cnf 81 172
-2 -3 -4 0
-1 -3 -4 0
-1 -2 -4 0
-1 -2 -3 0
-6 -7 -8 0
-5 -7 -8 0
-5 -6 -8 0
-5 -6 -7 0
-10 -11 -12 0
-9 -11 -12 0
-9 -10 -12 0
-9 -10 -11 0
-14 -15 -16 0
-13 -15 -16 0
-13 -14 -16 0
-13 -14 -15 0
-18 -19 -20 0
-17 -19 -20 0
-17 -18 -20 0
-17 -18 -19 0
-22 -23 -24 0
-21 -23 -24 0
-21 -22 -24 0
-21 -22 -23 0
-26 -27 -28 0
-25 -27 -28 0
-25 -26 -28 0
-25 -26 -27 0
-30 -31 -32 0
-29 -31 -32 0
-29 -30 -32 0
-29 -30 -31 0
-34 -35 -36 0
-33 -35 -36 0
-33 -34 -36 0
-33 -34 -35 0
-38 -39 -40 0
-37 -39 -40 0
-37 -38 -40 0
-37 -38 -39 0
-42 -43 -44 0
-41 -43 -44 0
-41 -42 -44 0
-41 -42 -43 0
-46 -47 -48 0
-45 -47 -48 0
-45 -46 -48 0
-45 -46 -47 0
-50 -51 -52 0
-49 -51 -52 0
-49 -50 -52 0
-49 -50 -51 0
-54 -55 -56 0
-53 -55 -56 0
-53 -54 -56 0
-53 -54 -55 0
-58 -59 -60 0
-57 -59 -60 0
-57 -58 -60 0
-57 -58 -59 0
-62 -63 -64 0
-61 -63 -64 0
-61 -62 -64 0
-61 -62 -63 0
-66 -67 -68 0
-65 -67 -68 0
-65 -66 -68 0
-65 -66 -67 0
-70 -71 -72 0
-69 -71 -72 0
-69 -70 -72 0
-69 -70 -71 0
-74 -75 -76 0
-73 -75 -76 0
-73 -74 -76 0
-73 -74 -75 0
-77 -78 -79 0
-77 -78 -80 0
-77 -78 -81 0
-77 -79 -80 0
-77 -79 -81 0
-77 -80 -81 0
-78 -79 -80 0
-78 -79 -81 0
-78 -80 -81 0
-79 -80 -81 0
19 28 81 0
34 28 81 0
34 19 81 0
34 19 28 0
6 43 26 0
22 43 26 0
22 6 26 0
22 6 43 0
18 3 57 0
10 3 57 0
10 18 57 0
10 18 3 0
9 79 46 0
13 79 46 0
13 9 46 0
13 9 79 0
47 35 49 0
65 35 49 0
65 47 49 0
65 47 35 0
58 23 69 0
14 23 69 0
14 58 69 0
14 58 23 0
32 15 41 0
1 15 41 0
1 32 41 0
1 32 15 0
59 29 80 0
67 29 80 0
67 59 80 0
67 59 29 0
8 27 76 0
51 27 76 0
51 8 76 0
51 8 27 0
36 72 62 0
7 72 62 0
7 36 62 0
7 36 72 0
44 73 37 0
77 73 37 0
77 44 37 0
77 44 73 0
71 42 53 0
52 42 53 0
52 71 53 0
52 71 42 0
61 78 50 0
4 78 50 0
4 61 50 0
4 61 78 0
17 24 39 0
55 24 39 0
55 17 39 0
55 17 24 0
33 75 30 0
21 75 30 0
21 33 30 0
21 33 75 0
54 31 64 0
11 31 64 0
11 54 64 0
11 54 31 0
45 5 2 0
40 5 2 0
40 45 2 0
40 45 5 0
20 66 16 0
63 66 16 0
63 20 16 0
63 20 66 0
48 60 74 0
56 60 74 0
56 48 74 0
56 48 60 0
38 12 70 0
38 12 25 0
38 12 68 0
38 70 25 0
38 70 68 0
38 25 68 0
12 70 25 0
12 70 68 0
12 25 68 0
70 25 68 0
